NAME : Euclidean Random Tour : n = 100, sample = 5 
COMMENT : Coordinates are generated uniformly sampled from [0, 100000] x [0, 100000] 
DIMENSION : 100 
EDGE_WEIGHT_TYPE : EUC_2D 
TOUR_SECTION 
1
61
80
100
79
44
5
32
26
59
22
94
45
56
77
36
74
48
85
58
83
2
33
66
24
49
75
20
11
93
29
27
54
28
42
19
90
21
99
41
8
9
89
70
82
13
52
91
14
3
7
97
81
35
39
55
67
47
76
30
63
16
46
51
40
25
37
38
84
53
69
92
64
31
71
87
12
95
86
17
78
65
43
96
4
34
15
60
98
88
10
68
6
73
57
72
18
50
23
62
-1
